c uprop, v00.0, 
c reading from data/prog515.c.cnf
c done reading: 0
p cnf 137 623
-49 -70 0
49 70 0
-62 -65 0
62 65 0
-55 -60 0
55 60 0
-52 -68 0
52 68 0
-47 -58 0
47 58 0
-43 -45 0
43 45 0
-41 70 0
41 -70 0
-65 -70 73 0
-65 73 0
-70 73 0
65 70 -73 0
65 -73 -74 0
70 -73 -74 0
-65 73 74 0
-70 73 74 0
73 74 0
-65 -70 74 0
-60 -65 75 0
-60 -73 75 0
-65 -73 75 0
60 65 -75 0
60 73 -75 0
65 73 -75 0
60 -75 -76 0
65 -75 -76 0
73 -75 -76 0
-60 75 76 0
-65 75 76 0
-73 75 76 0
-60 -65 -73 76 0
60 65 73 -76 0
-52 -60 77 0
-52 -75 77 0
-60 -75 77 0
52 60 -77 0
52 75 -77 0
60 75 -77 0
52 -77 -78 0
60 -77 -78 0
75 -77 -78 0
-52 77 78 0
-60 77 78 0
-75 77 78 0
-52 -60 -75 78 0
52 60 75 -78 0
-47 -52 79 0
-47 -77 79 0
-52 -77 79 0
47 52 -79 0
47 77 -79 0
52 77 -79 0
47 -79 -80 0
52 -79 -80 0
77 -79 -80 0
-47 79 80 0
-52 79 80 0
-77 79 80 0
-47 -52 -77 80 0
47 52 77 -80 0
-43 -47 81 0
-43 -79 81 0
-47 -79 81 0
43 47 -81 0
43 79 -81 0
47 79 -81 0
43 -81 -82 0
47 -81 -82 0
79 -81 -82 0
-43 81 82 0
-47 81 82 0
-79 81 82 0
-43 -47 -79 82 0
43 47 79 -82 0
43 -72 0
-72 81 0
-43 72 -81 0
-43 -69 -81 0
43 -69 81 0
-43 69 81 0
43 69 -81 0
41 -64 0
-41 64 0
-41 -59 0
41 59 0
51 -74 0
51 -64 -74 0
51 -64 0
-51 64 74 0
-46 -51 74 0
-46 -51 64 0
46 51 -74 0
46 51 0
46 51 -64 0
46 -64 -74 0
42 -70 -76 0
42 -51 -76 0
42 -51 -70 0
-42 70 76 0
-42 51 76 0
-42 51 70 0
-40 -42 76 0
-40 -42 70 0
-40 -42 51 0
40 42 -76 0
40 42 -70 0
40 42 -51 0
40 -51 -70 -76 0
-40 51 70 76 0
37 -65 -78 0
37 -42 -78 0
37 -42 -65 0
-37 65 78 0
-37 42 78 0
-37 42 65 0
-34 -37 78 0
-34 -37 65 0
-34 -37 42 0
34 37 -78 0
34 37 -65 0
34 37 -42 0
34 -42 -65 -78 0
-34 42 65 78 0
31 -60 -80 0
31 -37 -80 0
31 -37 -60 0
-31 60 80 0
-31 37 80 0
-31 37 60 0
-28 -31 80 0
-28 -31 60 0
-28 -31 37 0
28 31 -80 0
28 31 -60 0
28 31 -37 0
28 -37 -60 -80 0
-28 37 60 80 0
27 -52 -82 0
27 -31 -82 0
27 -31 -52 0
-27 52 82 0
-27 31 82 0
-27 31 52 0
-26 -27 82 0
-26 -27 52 0
-26 -27 31 0
26 27 -82 0
26 27 -52 0
26 27 -31 0
26 -31 -52 -82 0
-26 31 52 82 0
25 -47 -69 0
25 -27 -69 0
25 -27 -47 0
-25 47 69 0
-25 27 69 0
-25 27 47 0
-24 -25 69 0
-24 -25 47 0
-24 -25 27 0
24 25 -69 0
24 25 -47 0
24 25 -27 0
24 -27 -47 -69 0
-24 27 47 69 0
23 -43 -72 0
23 -25 -72 0
23 -25 -43 0
-23 43 72 0
-23 25 72 0
-23 25 43 0
-22 -23 72 0
-22 -23 43 0
-22 -23 25 0
22 23 -72 0
22 23 -43 0
22 23 -25 0
22 -25 -43 -72 0
-22 25 43 72 0
-21 -59 0
21 59 0
-20 -46 0
20 46 0
-19 -40 0
19 40 0
-18 -34 0
18 34 0
-17 -28 0
17 28 0
-16 -26 0
16 26 0
-15 -24 0
15 24 0
-14 -22 0
14 22 0
-13 -23 0
13 23 0
-38 -54 0
-35 -54 0
35 38 54 0
-12 35 38 0
-12 -35 -38 0
12 35 -38 0
12 -35 38 0
54 -67 0
-32 -67 0
32 -54 67 0
-11 32 -54 0
-11 -32 54 0
11 32 54 0
11 -32 -54 0
-57 67 0
-29 -57 0
29 57 -67 0
29 -67 -83 0
-29 67 -83 0
29 67 83 0
-29 -67 83 0
57 -84 0
-84 -85 0
-57 84 85 0
-57 85 -87 0
57 -85 -87 0
57 85 87 0
-57 -85 87 0
84 -88 0
-88 -89 0
-84 88 89 0
-84 89 -91 0
84 -89 -91 0
84 89 91 0
-84 -89 91 0
88 -92 0
-92 -93 0
-88 92 93 0
-88 93 -95 0
88 -93 -95 0
88 93 95 0
-88 -93 95 0
92 -96 0
-96 -97 0
-92 96 97 0
-92 97 -99 0
92 -97 -99 0
92 97 99 0
-92 -97 99 0
35 -100 0
38 -100 0
-35 -38 100 0
-35 -38 -101 0
35 38 -101 0
-35 38 101 0
35 -38 101 0
-32 -35 102 0
-32 -100 102 0
-35 -100 102 0
32 35 -102 0
32 100 -102 0
35 100 -102 0
32 -102 -103 0
35 -102 -103 0
100 -102 -103 0
-32 102 103 0
-35 102 103 0
-100 102 103 0
-32 -35 -100 103 0
32 35 100 -103 0
-29 -32 104 0
-29 -102 104 0
-32 -102 104 0
29 32 -104 0
29 102 -104 0
32 102 -104 0
29 -104 -105 0
32 -104 -105 0
102 -104 -105 0
-29 104 105 0
-32 104 105 0
-102 104 105 0
-29 -32 -102 105 0
29 32 102 -105 0
-29 -85 106 0
-85 -104 106 0
-29 -104 106 0
29 85 -106 0
85 104 -106 0
29 104 -106 0
85 -106 -107 0
29 -106 -107 0
104 -106 -107 0
-85 106 107 0
-29 106 107 0
-104 106 107 0
-29 -85 -104 107 0
29 85 104 -107 0
-85 -89 108 0
-89 -106 108 0
-85 -106 108 0
85 89 -108 0
89 106 -108 0
85 106 -108 0
89 -108 -109 0
85 -108 -109 0
106 -108 -109 0
-89 108 109 0
-85 108 109 0
-106 108 109 0
-85 -89 -106 109 0
85 89 106 -109 0
-89 -93 110 0
-93 -108 110 0
-89 -108 110 0
89 93 -110 0
93 108 -110 0
89 108 -110 0
93 -110 -111 0
89 -110 -111 0
108 -110 -111 0
-93 110 111 0
-89 110 111 0
-108 110 111 0
-89 -93 -108 111 0
89 93 108 -111 0
-93 -97 112 0
-97 -110 112 0
-93 -110 112 0
93 97 -112 0
97 110 -112 0
93 110 -112 0
97 -112 -113 0
93 -112 -113 0
110 -112 -113 0
-97 112 113 0
-93 112 113 0
-110 112 113 0
-93 -97 -110 113 0
93 97 110 -113 0
97 -114 0
112 -114 0
-97 -112 114 0
-97 -112 -115 0
97 112 -115 0
-97 112 115 0
97 -112 115 0
105 -116 0
38 -116 0
-38 -105 116 0
-38 -71 -105 0
38 -71 105 0
38 71 -105 0
-38 71 105 0
-35 66 -107 0
66 -107 -116 0
-35 66 -116 0
35 -66 107 0
-66 107 116 0
35 -66 116 0
-61 -66 107 0
35 -61 -66 0
-61 -66 116 0
61 66 -107 0
-35 61 66 0
61 66 -116 0
-35 61 -107 -116 0
35 -61 107 116 0
-32 53 -109 0
53 -66 -109 0
-32 53 -66 0
32 -53 109 0
-53 66 109 0
32 -53 66 0
-48 -53 109 0
32 -48 -53 0
-48 -53 66 0
48 53 -109 0
-32 48 53 0
48 53 -66 0
-32 48 -66 -109 0
32 -48 66 109 0
-29 44 -111 0
44 -53 -111 0
-29 44 -53 0
29 -44 111 0
-44 53 111 0
29 -44 53 0
-39 -44 111 0
29 -39 -44 0
-39 -44 53 0
39 44 -111 0
-29 39 44 0
39 44 -53 0
-29 39 -53 -111 0
29 -39 53 111 0
36 -85 -113 0
36 -44 -113 0
36 -44 -85 0
-36 85 113 0
-36 44 113 0
-36 44 85 0
-33 -36 113 0
-33 -36 85 0
-33 -36 44 0
33 36 -113 0
33 36 -85 0
33 36 -44 0
33 -44 -85 -113 0
-33 44 85 113 0
30 -89 -115 0
30 -36 -115 0
30 -36 -89 0
-30 89 115 0
-30 36 115 0
-30 36 89 0
-30 -86 115 0
-30 -86 89 0
-30 36 -86 0
30 86 -115 0
30 86 -89 0
30 -36 86 0
-36 86 -89 -115 0
36 -86 89 115 0
90 -93 -114 0
-30 90 -114 0
-30 90 -93 0
-90 93 114 0
30 -90 114 0
30 -90 93 0
-90 -94 114 0
-90 93 -94 0
30 -90 -94 0
90 94 -114 0
90 -93 94 0
-30 90 94 0
-30 -93 94 -114 0
30 93 -94 114 0
97 -98 0
90 -98 0
-90 -97 98 0
-90 -97 -117 0
90 97 -117 0
90 -97 117 0
-90 97 117 0
-38 -118 0
-101 -118 0
38 101 118 0
38 101 -119 0
-38 -101 -119 0
-38 101 119 0
38 -101 119 0
118 -120 0
-103 -120 0
103 -118 120 0
103 -118 -121 0
-103 118 -121 0
103 118 121 0
-103 -118 121 0
120 -122 0
-71 -122 0
71 -120 122 0
71 -120 -123 0
-71 120 -123 0
71 120 123 0
-71 -120 123 0
122 -124 0
-61 -124 0
61 -122 124 0
61 -122 -125 0
-61 122 -125 0
61 122 125 0
-61 -122 125 0
124 -126 0
-48 -126 0
48 -124 126 0
48 -124 -127 0
-48 124 -127 0
48 124 127 0
-48 -124 127 0
126 -128 0
-39 -128 0
39 -126 128 0
39 -126 -129 0
-39 126 -129 0
39 126 129 0
-39 -126 129 0
128 -130 0
-33 -130 0
33 -128 130 0
33 -128 -131 0
-33 128 -131 0
33 128 131 0
-33 -128 131 0
130 -132 0
-86 -132 0
86 -130 132 0
86 -130 -133 0
-86 130 -133 0
86 130 133 0
-86 -130 133 0
132 -134 0
-94 -134 0
94 -132 134 0
94 -132 -135 0
-94 132 -135 0
94 132 135 0
-94 -132 135 0
-50 134 0
-50 -117 0
50 117 -134 0
117 -134 -136 0
-117 134 -136 0
117 134 136 0
-117 -134 136 0
50 -63 0
-63 -98 0
-50 63 98 0
-50 98 -137 0
50 -98 -137 0
50 98 137 0
-50 -98 137 0
-56 59 0
38 -56 0
-38 56 -59 0
-38 -59 0
38 59 0
10 -46 -101 0
10 -46 -56 0
10 -56 -101 0
-10 46 101 0
-10 46 56 0
-10 56 101 0
-10 46 0
-10 101 0
-10 56 0
46 56 101 0
9 -40 -103 0
9 -10 -40 0
9 -10 -103 0
-9 40 103 0
-9 10 40 0
-9 10 103 0
9 -40 0
9 -103 0
9 -10 0
-10 -40 -103 0
8 -34 -71 0
8 -9 -34 0
8 -9 -71 0
-8 34 71 0
-8 9 34 0
-8 9 71 0
8 -34 0
8 -71 0
8 -9 0
-9 -34 -71 0
7 -28 -61 0
7 -8 -28 0
7 -8 -61 0
-7 28 61 0
-7 8 28 0
-7 8 61 0
-7 28 0
-7 61 0
-7 8 0
8 28 61 0
6 -26 -48 0
6 -7 -26 0
6 -7 -48 0
-6 26 48 0
-6 7 26 0
-6 7 48 0
-6 26 0
-6 48 0
-6 7 0
7 26 48 0
5 -24 -39 0
5 -6 -24 0
5 -6 -39 0
-5 24 39 0
-5 6 24 0
-5 6 39 0
5 -24 0
5 -39 0
5 -6 0
-6 -24 -39 0
4 -22 -33 0
4 -5 -22 0
4 -5 -33 0
-4 22 33 0
-4 5 22 0
-4 5 33 0
4 -22 0
4 -33 0
4 -5 0
-5 -22 -33 0
3 -23 -86 0
3 -4 -23 0
3 -4 -86 0
-3 23 86 0
-3 4 23 0
-3 4 86 0
3 -23 0
3 -86 0
3 -4 0
-4 -23 -86 0
-2 94 0
-2 3 0
2 -3 -94 0
3 -94 0
-3 94 0
-1 117 0
-1 2 0
1 -2 -117 0
2 -117 0
-2 117 0
-1 -98 0
1 -98 0
-1 98 0
